c defined variables: 27 28 29 30 31 32 33 34 35 36 37 38 39 40 41 42 43 44 45 46 47 48 49 50 51 52 53 54 55 56 57 58 59 60 61 62 63 64 65 66 67 68 69 72 73 74 75 76 77 78 79 80 81 82 83 84 85 86 87 88 89 90 91 92 94 95 96 97 98 99 100 101 102 103 104 105 106 107 108 109 110 111 112 113 114 115 116 117 118 119 120 121 122 123 124 125 126 127 128 129 130 131 132 133 134 135 136 137 138 139 140 141 142 143 144 145 146 147 148 149 150 151 152 153 154 155 156 157 158 159 160 161 162 163 164 165 166 167 168 169 170 171 172 173 174 175 176 177 178 179 180 181 182 183 184 185 186 187 188 189 190 191 192 193 194 195 196 
p cnf 869 1326
a 1 3 4 5 6 7 8 9 10 11 12 13 14 15 16 17 18 19 20 21 22 23 24 0
e 70 71 93 27 28 29 30 31 32 33 34 35 36 37 38 39 40 41 42 43 44 45 46 47 48 49 50 51 52 53 54 55 56 57 58 59 60 61 62 63 64 65 66 67 68 69 72 73 74 75 76 77 78 79 80 81 82 83 84 85 86 87 88 89 90 91 92 94 95 96 97 98 99 100 101 102 103 104 105 106 107 108 109 110 111 112 113 114 115 116 117 118 119 120 121 122 123 124 125 126 127 128 129 130 131 132 133 134 135 136 137 138 139 140 141 142 143 144 145 146 147 148 149 150 151 152 153 154 155 156 157 158 159 160 161 162 163 164 165 166 167 168 169 170 171 172 173 174 175 176 177 178 179 180 181 182 183 184 185 186 187 188 189 190 191 192 193 194 195 196 709 710 711 712 713 714 715 716 717 718 719 720 721 722 723 724 725 726 727 728 729 730 731 732 733 734 735 736 737 738 739 740 741 742 743 744 745 746 747 748 749 750 751 752 753 754 755 756 757 758 759 760 761 762 763 764 765 766 767 768 769 770 771 772 773 774 775 776 777 778 779 780 781 782 783 784 785 786 787 788 789 790 791 792 793 794 795 796 797 798 799 800 801 802 803 804 805 806 807 808 809 810 811 812 813 814 815 816 817 818 819 820 821 822 823 824 825 826 827 828 829 830 831 832 833 834 835 836 837 838 839 840 841 842 843 844 845 846 847 848 849 850 851 852 853 854 855 856 857 858 859 860 861 862 863 864 865 866 867 868 869 0
d 2 1 3 4 5 6 7 8 9 10 11 12 13 0
d 25 3 4 5 6 7 8 9 10 11 12 13 0
d 26 14 15 16 17 18 19 20 21 22 23 24 0
710 -27 0
-710 27 0
711 -28 0
-711 28 0
712 -29 0
-712 29 0
713 -30 0
-713 30 0
714 -31 0
-714 31 0
715 -32 0
-715 32 0
716 -33 0
-716 33 0
717 -34 0
-717 34 0
718 -35 0
-718 35 0
719 -36 0
-719 36 0
720 -37 0
-720 37 0
721 -38 0
-721 38 0
722 -39 0
-722 39 0
723 -40 0
-723 40 0
724 -41 0
-724 41 0
725 -42 0
-725 42 0
726 -43 0
-726 43 0
727 -44 0
-727 44 0
728 -45 0
-728 45 0
729 -46 0
-729 46 0
730 -47 0
-730 47 0
731 -48 0
-731 48 0
732 -49 0
-732 49 0
733 -50 0
-733 50 0
734 -51 0
-734 51 0
735 -52 0
-735 52 0
736 -53 0
-736 53 0
737 -54 0
-737 54 0
738 -55 0
-738 55 0
739 -56 0
-739 56 0
740 -57 0
-740 57 0
741 -58 0
-741 58 0
742 -59 0
-742 59 0
743 -60 0
-743 60 0
744 -61 0
-744 61 0
745 -62 0
-745 62 0
746 -63 0
-746 63 0
747 -64 0
-747 64 0
748 -65 0
-748 65 0
749 -66 0
-749 66 0
750 -67 0
-750 67 0
751 -68 0
-751 68 0
752 -69 0
-752 69 0
753 -72 0
-753 72 0
-709 -73 0
709 73 0
754 -74 0
-754 74 0
755 -75 0
-755 75 0
756 -76 0
-756 76 0
757 -77 0
-757 77 0
758 -78 0
-758 78 0
759 -79 0
-759 79 0
760 -80 0
-760 80 0
761 -81 0
-761 81 0
762 -82 0
-762 82 0
763 -83 0
-763 83 0
764 -84 0
-764 84 0
765 -85 0
-765 85 0
766 -86 0
-766 86 0
767 -87 0
-767 87 0
768 -88 0
-768 88 0
769 -89 0
-769 89 0
770 -90 0
-770 90 0
771 -91 0
-771 91 0
772 -92 0
-772 92 0
773 -94 0
-773 94 0
774 -95 0
-774 95 0
-775 -96 0
775 96 0
776 -97 0
-776 97 0
777 -98 0
-777 98 0
778 -99 0
-778 99 0
779 -100 0
-779 100 0
-780 -101 0
780 101 0
781 -102 0
-781 102 0
782 -103 0
-782 103 0
783 -104 0
-783 104 0
784 -105 0
-784 105 0
785 -106 0
-785 106 0
786 -107 0
-786 107 0
787 -108 0
-787 108 0
-788 -109 0
788 109 0
789 -110 0
-789 110 0
790 -111 0
-790 111 0
791 -112 0
-791 112 0
792 -113 0
-792 113 0
793 -114 0
-793 114 0
794 -115 0
-794 115 0
795 -116 0
-795 116 0
796 -117 0
-796 117 0
797 -118 0
-797 118 0
798 -119 0
-798 119 0
799 -120 0
-799 120 0
800 -121 0
-800 121 0
801 -122 0
-801 122 0
802 -123 0
-802 123 0
803 -124 0
-803 124 0
804 -125 0
-804 125 0
805 -126 0
-805 126 0
806 -127 0
-806 127 0
807 -128 0
-807 128 0
808 -129 0
-808 129 0
809 -130 0
-809 130 0
810 -131 0
-810 131 0
811 -132 0
-811 132 0
812 -133 0
-812 133 0
813 -134 0
-813 134 0
-814 -135 0
814 135 0
815 -136 0
-815 136 0
816 -137 0
-816 137 0
817 -138 0
-817 138 0
818 -139 0
-818 139 0
819 -140 0
-819 140 0
820 -141 0
-820 141 0
821 -142 0
-821 142 0
822 -143 0
-822 143 0
823 -144 0
-823 144 0
-824 -145 0
824 145 0
825 -146 0
-825 146 0
826 -147 0
-826 147 0
827 -148 0
-827 148 0
828 -149 0
-828 149 0
829 -150 0
-829 150 0
830 -151 0
-830 151 0
831 -152 0
-831 152 0
-832 -153 0
832 153 0
833 -154 0
-833 154 0
834 -155 0
-834 155 0
835 -156 0
-835 156 0
836 -157 0
-836 157 0
837 -158 0
-837 158 0
838 -159 0
-838 159 0
839 -160 0
-839 160 0
840 -161 0
-840 161 0
-841 -162 0
841 162 0
842 -163 0
-842 163 0
843 -164 0
-843 164 0
844 -165 0
-844 165 0
845 -166 0
-845 166 0
846 -167 0
-846 167 0
847 -168 0
-847 168 0
848 -169 0
-848 169 0
-849 -170 0
849 170 0
850 -171 0
-850 171 0
851 -172 0
-851 172 0
852 -173 0
-852 173 0
853 -174 0
-853 174 0
854 -175 0
-854 175 0
855 -176 0
-855 176 0
856 -177 0
-856 177 0
857 -178 0
-857 178 0
858 -179 0
-858 179 0
859 -180 0
-859 180 0
-709 -181 0
709 181 0
-709 -182 0
709 182 0
860 -183 0
-860 183 0
861 -184 0
-861 184 0
862 -185 0
-862 185 0
863 -186 0
-863 186 0
864 -187 0
-864 187 0
865 -188 0
-865 188 0
866 -189 0
-866 189 0
867 -190 0
-867 190 0
868 -191 0
-868 191 0
869 -192 0
-869 192 0
-709 -193 0
709 193 0
709 -194 0
-709 194 0
709 -195 0
-709 195 0
709 -196 0
-709 196 0
-27 -24 0
-27 13 0
27 24 -13 0
-28 24 0
-28 -13 0
28 -24 13 0
-29 -27 0
-29 -28 0
29 27 28 0
-30 -22 0
-30 11 0
30 22 -11 0
-31 22 0
-31 -11 0
31 -22 11 0
-32 -30 0
-32 -31 0
32 30 31 0
-33 -23 0
-33 12 0
33 23 -12 0
-34 23 0
-34 -12 0
34 -23 12 0
-35 -33 0
-35 -34 0
35 33 34 0
-36 32 0
-36 35 0
36 -32 -35 0
-37 29 0
-37 36 0
37 -29 -36 0
-38 -14 0
-38 3 0
38 14 -3 0
-39 14 0
-39 -3 0
39 -14 3 0
-40 -38 0
-40 -39 0
40 38 39 0
-41 -15 0
-41 4 0
41 15 -4 0
-42 15 0
-42 -4 0
42 -15 4 0
-43 -41 0
-43 -42 0
43 41 42 0
-44 40 0
-44 43 0
44 -40 -43 0
-45 -16 0
-45 5 0
45 16 -5 0
-46 16 0
-46 -5 0
46 -16 5 0
-47 -45 0
-47 -46 0
47 45 46 0
-48 -17 0
-48 6 0
48 17 -6 0
-49 17 0
-49 -6 0
49 -17 6 0
-50 -48 0
-50 -49 0
50 48 49 0
-51 47 0
-51 50 0
51 -47 -50 0
-52 44 0
-52 51 0
52 -44 -51 0
-53 -18 0
-53 7 0
53 18 -7 0
-54 18 0
-54 -7 0
54 -18 7 0
-55 -53 0
-55 -54 0
55 53 54 0
-56 -19 0
-56 8 0
56 19 -8 0
-57 19 0
-57 -8 0
57 -19 8 0
-58 -56 0
-58 -57 0
58 56 57 0
-59 55 0
-59 58 0
59 -55 -58 0
-60 -20 0
-60 9 0
60 20 -9 0
-61 20 0
-61 -9 0
61 -20 9 0
-62 -60 0
-62 -61 0
62 60 61 0
-63 -21 0
-63 10 0
63 21 -10 0
-64 21 0
-64 -10 0
64 -21 10 0
-65 -63 0
-65 -64 0
65 63 64 0
-66 62 0
-66 65 0
66 -62 -65 0
-67 59 0
-67 66 0
67 -59 -66 0
-68 52 0
-68 67 0
68 -52 -67 0
-69 37 0
-69 68 0
69 -37 -68 0
-70 26 0
-70 -25 0
70 -26 25 0
-71 -26 0
-71 25 0
71 26 -25 0
-72 -70 0
-72 -71 0
72 70 71 0
-73 69 0
-73 -72 0
73 -69 72 0
-74 5 0
-74 3 0
74 -5 -3 0
-75 4 0
-75 74 0
75 -4 -74 0
-76 6 0
-76 3 0
76 -6 -3 0
-77 75 0
-77 76 0
77 -75 -76 0
-78 7 0
-78 3 0
78 -7 -3 0
-79 77 0
-79 78 0
79 -77 -78 0
-80 8 0
-80 3 0
80 -8 -3 0
-81 79 0
-81 80 0
81 -79 -80 0
-82 9 0
-82 3 0
82 -9 -3 0
-83 81 0
-83 82 0
83 -81 -82 0
-84 10 0
-84 3 0
84 -10 -3 0
-85 83 0
-85 84 0
85 -83 -84 0
-86 11 0
-86 3 0
86 -11 -3 0
-87 85 0
-87 86 0
87 -85 -86 0
-88 12 0
-88 3 0
88 -12 -3 0
-89 87 0
-89 88 0
89 -87 -88 0
-90 13 0
-90 3 0
90 -13 -3 0
-91 89 0
-91 90 0
91 -89 -90 0
-92 -1 0
-92 91 0
92 1 -91 0
-93 -2 0
-93 89 0
93 2 -89 0
-94 -1 0
-94 93 0
94 1 -93 0
-95 -90 0
-95 -94 0
95 90 94 0
96 -92 0
96 -95 0
-96 92 95 0
-97 -24 0
-97 -96 0
97 24 96 0
-98 24 0
-98 96 0
98 -24 -96 0
-99 -97 0
-99 -98 0
99 97 98 0
-100 -85 0
-100 -86 0
100 85 86 0
101 -87 0
101 -100 0
-101 87 100 0
-102 -1 0
-102 -101 0
102 1 101 0
-103 1 0
-103 86 0
103 -1 -86 0
-104 -102 0
-104 -103 0
104 102 103 0
-105 -22 0
-105 -104 0
105 22 104 0
-106 22 0
-106 104 0
106 -22 -104 0
-107 -105 0
-107 -106 0
107 105 106 0
-108 -87 0
-108 -88 0
108 87 88 0
109 -89 0
109 -108 0
-109 89 108 0
-110 -1 0
-110 -109 0
110 1 109 0
-111 1 0
-111 88 0
111 -1 -88 0
-112 -110 0
-112 -111 0
112 110 111 0
-113 -23 0
-113 -112 0
113 23 112 0
-114 23 0
-114 112 0
114 -23 -112 0
-115 -113 0
-115 -114 0
115 113 114 0
-116 107 0
-116 115 0
116 -107 -115 0
-117 99 0
-117 116 0
117 -99 -116 0
-118 4 0
-118 3 0
118 -4 -3 0
-119 -1 0
-119 -118 0
119 1 118 0
-120 1 0
-120 118 0
120 -1 -118 0
-121 -119 0
-121 -120 0
121 119 120 0
-122 -15 0
-122 -121 0
122 15 121 0
-123 15 0
-123 121 0
123 -15 -121 0
-124 -122 0
-124 -123 0
124 122 123 0
-125 14 0
-125 124 0
125 -14 -124 0
-126 -5 0
-126 118 0
126 5 -118 0
-127 -1 0
-127 126 0
127 1 -126 0
-128 4 0
-128 -1 0
128 -4 1 0
-129 74 0
-129 -128 0
129 -74 128 0
-130 -127 0
-130 -129 0
130 127 129 0
-131 -16 0
-131 -130 0
131 16 130 0
-132 16 0
-132 130 0
132 -16 -130 0
-133 -131 0
-133 -132 0
133 131 132 0
-134 -75 0
-134 -76 0
134 75 76 0
135 -77 0
135 -134 0
-135 77 134 0
-136 -1 0
-136 -135 0
136 1 135 0
-137 1 0
-137 76 0
137 -1 -76 0
-138 -136 0
-138 -137 0
138 136 137 0
-139 -17 0
-139 -138 0
139 17 138 0
-140 17 0
-140 138 0
140 -17 -138 0
-141 -139 0
-141 -140 0
141 139 140 0
-142 133 0
-142 141 0
142 -133 -141 0
-143 125 0
-143 142 0
143 -125 -142 0
-144 -77 0
-144 -78 0
144 77 78 0
145 -79 0
145 -144 0
-145 79 144 0
-146 -1 0
-146 -145 0
146 1 145 0
-147 1 0
-147 78 0
147 -1 -78 0
-148 -146 0
-148 -147 0
148 146 147 0
-149 -18 0
-149 -148 0
149 18 148 0
-150 18 0
-150 148 0
150 -18 -148 0
-151 -149 0
-151 -150 0
151 149 150 0
-152 -79 0
-152 -80 0
152 79 80 0
153 -81 0
153 -152 0
-153 81 152 0
-154 -1 0
-154 -153 0
154 1 153 0
-155 1 0
-155 80 0
155 -1 -80 0
-156 -154 0
-156 -155 0
156 154 155 0
-157 -19 0
-157 -156 0
157 19 156 0
-158 19 0
-158 156 0
158 -19 -156 0
-159 -157 0
-159 -158 0
159 157 158 0
-160 151 0
-160 159 0
160 -151 -159 0
-161 -81 0
-161 -82 0
161 81 82 0
162 -83 0
162 -161 0
-162 83 161 0
-163 -1 0
-163 -162 0
163 1 162 0
-164 1 0
-164 82 0
164 -1 -82 0
-165 -163 0
-165 -164 0
165 163 164 0
-166 -20 0
-166 -165 0
166 20 165 0
-167 20 0
-167 165 0
167 -20 -165 0
-168 -166 0
-168 -167 0
168 166 167 0
-169 -83 0
-169 -84 0
169 83 84 0
170 -85 0
170 -169 0
-170 85 169 0
-171 -1 0
-171 -170 0
171 1 170 0
-172 1 0
-172 84 0
172 -1 -84 0
-173 -171 0
-173 -172 0
173 171 172 0
-174 -21 0
-174 -173 0
174 21 173 0
-175 21 0
-175 173 0
175 -21 -173 0
-176 -174 0
-176 -175 0
176 174 175 0
-177 168 0
-177 176 0
177 -168 -176 0
-178 160 0
-178 177 0
178 -160 -177 0
-179 143 0
-179 178 0
179 -143 -178 0
-180 117 0
-180 179 0
180 -117 -179 0
-181 180 0
-181 71 0
181 -180 -71 0
-182 25 0
-182 91 0
182 -25 -91 0
-183 -12 0
-183 -11 0
183 12 11 0
-184 -13 0
-184 183 0
184 13 -183 0
-185 -4 0
-185 -3 0
185 4 3 0
-186 -6 0
-186 -5 0
186 6 5 0
-187 185 0
-187 186 0
187 -185 -186 0
-188 -8 0
-188 -7 0
188 8 7 0
-189 -10 0
-189 -9 0
189 10 9 0
-190 188 0
-190 189 0
190 -188 -189 0
-191 187 0
-191 190 0
191 -187 -190 0
-192 184 0
-192 191 0
192 -184 -191 0
-193 -25 0
-193 192 0
193 25 -192 0
-194 -182 0
-194 -193 0
194 182 193 0
-195 -181 0
-195 194 0
195 181 -194 0
-196 -73 0
-196 195 0
196 73 -195 0
196 0
709 0
13 -710 0
-24 -710 0
-13 24 710 0
-13 -711 0
24 -711 0
13 -24 711 0
-27 -712 0
-28 -712 0
27 28 712 0
11 -713 0
-22 -713 0
-11 22 713 0
-11 -714 0
22 -714 0
11 -22 714 0
-30 -715 0
-31 -715 0
30 31 715 0
12 -716 0
-23 -716 0
-12 23 716 0
-12 -717 0
23 -717 0
12 -23 717 0
-33 -718 0
-34 -718 0
33 34 718 0
32 -719 0
35 -719 0
-32 -35 719 0
29 -720 0
36 -720 0
-29 -36 720 0
3 -721 0
-14 -721 0
-3 14 721 0
-3 -722 0
14 -722 0
3 -14 722 0
-38 -723 0
-39 -723 0
38 39 723 0
4 -724 0
-15 -724 0
-4 15 724 0
-4 -725 0
15 -725 0
4 -15 725 0
-41 -726 0
-42 -726 0
41 42 726 0
40 -727 0
43 -727 0
-40 -43 727 0
5 -728 0
-16 -728 0
-5 16 728 0
-5 -729 0
16 -729 0
5 -16 729 0
-45 -730 0
-46 -730 0
45 46 730 0
6 -731 0
-17 -731 0
-6 17 731 0
-6 -732 0
17 -732 0
6 -17 732 0
-48 -733 0
-49 -733 0
48 49 733 0
47 -734 0
50 -734 0
-47 -50 734 0
44 -735 0
51 -735 0
-44 -51 735 0
7 -736 0
-18 -736 0
-7 18 736 0
-7 -737 0
18 -737 0
7 -18 737 0
-53 -738 0
-54 -738 0
53 54 738 0
8 -739 0
-19 -739 0
-8 19 739 0
-8 -740 0
19 -740 0
8 -19 740 0
-56 -741 0
-57 -741 0
56 57 741 0
55 -742 0
58 -742 0
-55 -58 742 0
9 -743 0
-20 -743 0
-9 20 743 0
-9 -744 0
20 -744 0
9 -20 744 0
-60 -745 0
-61 -745 0
60 61 745 0
10 -746 0
-21 -746 0
-10 21 746 0
-10 -747 0
21 -747 0
10 -21 747 0
-63 -748 0
-64 -748 0
63 64 748 0
62 -749 0
65 -749 0
-62 -65 749 0
59 -750 0
66 -750 0
-59 -66 750 0
52 -751 0
67 -751 0
-52 -67 751 0
37 -752 0
68 -752 0
-37 -68 752 0
-70 -753 0
-71 -753 0
70 71 753 0
3 -754 0
5 -754 0
-3 -5 754 0
4 -755 0
74 -755 0
-4 -74 755 0
3 -756 0
6 -756 0
-3 -6 756 0
75 -757 0
76 -757 0
-75 -76 757 0
3 -758 0
7 -758 0
-3 -7 758 0
77 -759 0
78 -759 0
-77 -78 759 0
3 -760 0
8 -760 0
-3 -8 760 0
79 -761 0
80 -761 0
-79 -80 761 0
3 -762 0
9 -762 0
-3 -9 762 0
81 -763 0
82 -763 0
-81 -82 763 0
3 -764 0
10 -764 0
-3 -10 764 0
83 -765 0
84 -765 0
-83 -84 765 0
3 -766 0
11 -766 0
-3 -11 766 0
85 -767 0
86 -767 0
-85 -86 767 0
3 -768 0
12 -768 0
-3 -12 768 0
87 -769 0
88 -769 0
-87 -88 769 0
3 -770 0
13 -770 0
-3 -13 770 0
89 -771 0
90 -771 0
-89 -90 771 0
-1 -772 0
91 -772 0
1 -91 772 0
-1 -773 0
93 -773 0
1 -93 773 0
-90 -774 0
-94 -774 0
90 94 774 0
-92 -775 0
-95 -775 0
92 95 775 0
-24 -776 0
-96 -776 0
24 96 776 0
24 -777 0
96 -777 0
-24 -96 777 0
-97 -778 0
-98 -778 0
97 98 778 0
-85 -779 0
-86 -779 0
85 86 779 0
-87 -780 0
-100 -780 0
87 100 780 0
-1 -781 0
-101 -781 0
1 101 781 0
1 -782 0
86 -782 0
-1 -86 782 0
-102 -783 0
-103 -783 0
102 103 783 0
-22 -784 0
-104 -784 0
22 104 784 0
22 -785 0
104 -785 0
-22 -104 785 0
-105 -786 0
-106 -786 0
105 106 786 0
-87 -787 0
-88 -787 0
87 88 787 0
-89 -788 0
-108 -788 0
89 108 788 0
-1 -789 0
-109 -789 0
1 109 789 0
1 -790 0
88 -790 0
-1 -88 790 0
-110 -791 0
-111 -791 0
110 111 791 0
-23 -792 0
-112 -792 0
23 112 792 0
23 -793 0
112 -793 0
-23 -112 793 0
-113 -794 0
-114 -794 0
113 114 794 0
107 -795 0
115 -795 0
-107 -115 795 0
99 -796 0
116 -796 0
-99 -116 796 0
3 -797 0
4 -797 0
-3 -4 797 0
-1 -798 0
-118 -798 0
1 118 798 0
1 -799 0
118 -799 0
-1 -118 799 0
-119 -800 0
-120 -800 0
119 120 800 0
-15 -801 0
-121 -801 0
15 121 801 0
15 -802 0
121 -802 0
-15 -121 802 0
-122 -803 0
-123 -803 0
122 123 803 0
14 -804 0
124 -804 0
-14 -124 804 0
-5 -805 0
118 -805 0
5 -118 805 0
-1 -806 0
126 -806 0
1 -126 806 0
-1 -807 0
4 -807 0
1 -4 807 0
74 -808 0
-128 -808 0
-74 128 808 0
-127 -809 0
-129 -809 0
127 129 809 0
-16 -810 0
-130 -810 0
16 130 810 0
16 -811 0
130 -811 0
-16 -130 811 0
-131 -812 0
-132 -812 0
131 132 812 0
-75 -813 0
-76 -813 0
75 76 813 0
-77 -814 0
-134 -814 0
77 134 814 0
-1 -815 0
-135 -815 0
1 135 815 0
1 -816 0
76 -816 0
-1 -76 816 0
-136 -817 0
-137 -817 0
136 137 817 0
-17 -818 0
-138 -818 0
17 138 818 0
17 -819 0
138 -819 0
-17 -138 819 0
-139 -820 0
-140 -820 0
139 140 820 0
133 -821 0
141 -821 0
-133 -141 821 0
125 -822 0
142 -822 0
-125 -142 822 0
-77 -823 0
-78 -823 0
77 78 823 0
-79 -824 0
-144 -824 0
79 144 824 0
-1 -825 0
-145 -825 0
1 145 825 0
1 -826 0
78 -826 0
-1 -78 826 0
-146 -827 0
-147 -827 0
146 147 827 0
-18 -828 0
-148 -828 0
18 148 828 0
18 -829 0
148 -829 0
-18 -148 829 0
-149 -830 0
-150 -830 0
149 150 830 0
-79 -831 0
-80 -831 0
79 80 831 0
-81 -832 0
-152 -832 0
81 152 832 0
-1 -833 0
-153 -833 0
1 153 833 0
1 -834 0
80 -834 0
-1 -80 834 0
-154 -835 0
-155 -835 0
154 155 835 0
-19 -836 0
-156 -836 0
19 156 836 0
19 -837 0
156 -837 0
-19 -156 837 0
-157 -838 0
-158 -838 0
157 158 838 0
151 -839 0
159 -839 0
-151 -159 839 0
-81 -840 0
-82 -840 0
81 82 840 0
-83 -841 0
-161 -841 0
83 161 841 0
-1 -842 0
-162 -842 0
1 162 842 0
1 -843 0
82 -843 0
-1 -82 843 0
-163 -844 0
-164 -844 0
163 164 844 0
-20 -845 0
-165 -845 0
20 165 845 0
20 -846 0
165 -846 0
-20 -165 846 0
-166 -847 0
-167 -847 0
166 167 847 0
-83 -848 0
-84 -848 0
83 84 848 0
-85 -849 0
-169 -849 0
85 169 849 0
-1 -850 0
-170 -850 0
1 170 850 0
1 -851 0
84 -851 0
-1 -84 851 0
-171 -852 0
-172 -852 0
171 172 852 0
-21 -853 0
-173 -853 0
21 173 853 0
21 -854 0
173 -854 0
-21 -173 854 0
-174 -855 0
-175 -855 0
174 175 855 0
168 -856 0
176 -856 0
-168 -176 856 0
160 -857 0
177 -857 0
-160 -177 857 0
143 -858 0
178 -858 0
-143 -178 858 0
117 -859 0
179 -859 0
-117 -179 859 0
-11 -860 0
-12 -860 0
11 12 860 0
-13 -861 0
183 -861 0
13 -183 861 0
-3 -862 0
-4 -862 0
3 4 862 0
-5 -863 0
-6 -863 0
5 6 863 0
185 -864 0
186 -864 0
-185 -186 864 0
-7 -865 0
-8 -865 0
7 8 865 0
-9 -866 0
-10 -866 0
9 10 866 0
188 -867 0
189 -867 0
-188 -189 867 0
187 -868 0
190 -868 0
-187 -190 868 0
184 -869 0
191 -869 0
-184 -191 869 0
